; PUSH cw_5 SWAP1 PUSH cw_4 SWAP1 PUSH cw_5 => PUSH cw_4 PUSH cw_5 SWAP2 DUP3
(set-option :produce-proofs true)
; 
(set-info :status unknown)
(declare-fun storage_t ((_ BitVec 256) (_ BitVec 256) (_ BitVec 256) Int (_ BitVec 256)) (_ BitVec 256))
(declare-fun w_4 () (_ BitVec 256))
(declare-fun w_5 () (_ BitVec 256))
(declare-fun storage_s ((_ BitVec 256) (_ BitVec 256) (_ BitVec 256) Int (_ BitVec 256)) (_ BitVec 256))
(declare-fun exc_halt_t (Int) Bool)
(declare-fun exc_halt_s (Int) Bool)
(declare-fun sc_t (Int) (_ BitVec 6))
(declare-fun stack_t ((_ BitVec 256) (_ BitVec 256) (_ BitVec 256) Int (_ BitVec 6)) (_ BitVec 256))
(declare-fun stack_s ((_ BitVec 256) (_ BitVec 256) (_ BitVec 256) Int (_ BitVec 6)) (_ BitVec 256))
(declare-fun sc_s (Int) (_ BitVec 6))
(declare-fun used_gas_t ((_ BitVec 256) (_ BitVec 256) (_ BitVec 256) Int) Int)
(declare-fun used_gas_s ((_ BitVec 256) (_ BitVec 256) (_ BitVec 256) Int) Int)
(assert
 (exists ((x_0 (_ BitVec 256)) )(let (($x781 (forall ((w (_ BitVec 256)) )(let ((?x10741 (storage_t x_0 w_5 w_4 4 w)))
 (let ((?x427 (storage_s x_0 w_5 w_4 5 w)))
 (= ?x427 ?x10741))))
 ))
 (let (($x7854 (exc_halt_t 4)))
 (let (($x1862 (exc_halt_s 5)))
 (let (($x1994 (= $x1862 $x7854)))
 (let (($x890 (forall ((n (_ BitVec 6)) )(let ((?x7495 (sc_t 4)))
 (let (($x3540 (bvsle ?x7495 n)))
 (let ((?x3845 (stack_t x_0 w_5 w_4 4 n)))
 (let ((?x5192 (stack_s x_0 w_5 w_4 5 n)))
 (let (($x196 (= ?x5192 ?x3845)))
 (or $x196 $x3540)))))))
 ))
 (let ((?x7495 (sc_t 4)))
 (let ((?x4319 (sc_s 5)))
 (let (($x3074 (= ?x4319 ?x7495)))
 (let ((?x3771 (used_gas_t x_0 w_5 w_4 0)))
 (let ((?x5086 (used_gas_s x_0 w_5 w_4 0)))
 (let (($x4565 (= ?x5086 ?x3771)))
 (let (($x8575 (forall ((w (_ BitVec 256)) )(let ((?x5357 (storage_t x_0 w_5 w_4 0 w)))
 (let ((?x9831 (storage_s x_0 w_5 w_4 0 w)))
 (= ?x9831 ?x5357))))
 ))
 (let (($x56 (exc_halt_t 0)))
 (let (($x57 (exc_halt_s 0)))
 (let (($x58 (= $x57 $x56)))
 (let (($x4167 (forall ((n (_ BitVec 6)) )(let ((?x63 (sc_t 0)))
 (let (($x11416 (bvsle ?x63 n)))
 (let ((?x4700 (stack_t x_0 w_5 w_4 0 n)))
 (let ((?x6271 (stack_s x_0 w_5 w_4 0 n)))
 (let (($x796 (= ?x6271 ?x4700)))
 (or $x796 $x11416)))))))
 ))
 (let ((?x63 (sc_t 0)))
 (let ((?x72 (sc_s 0)))
 (let (($x73 (= ?x72 ?x63)))
 (let (($x9712 (exc_halt_t 3)))
 (let (($x4543 (not (bvsle (_ bv0 6) (bvadd (_ bv61 6) (sc_t 3))))))
 (let (($x1388 (not (= ((_ extract 6 6) (bvadd (_ bv1 7) (concat (_ bv0 1) (sc_t 3)))) (_ bv0 1)))))
 (let (($x114 (forall ((w (_ BitVec 256)) )(let ((?x1992 (storage_t x_0 w_5 w_4 3 w)))
 (let ((?x10741 (storage_t x_0 w_5 w_4 4 w)))
 (= ?x10741 ?x1992))))
 ))
 (let (($x2501 (forall ((n (_ BitVec 6)) )(let ((?x6754 (sc_t 3)))
 (let ((?x5768 (bvadd (_ bv61 6) ?x6754)))
 (let (($x11485 (bvsle ?x5768 n)))
 (let ((?x612 (stack_t x_0 w_5 w_4 3 n)))
 (let ((?x3845 (stack_t x_0 w_5 w_4 4 n)))
 (or (= ?x3845 ?x612) $x11485)))))))
 ))
 (let (($x4149 (= ?x7495 (bvadd (_ bv1 6) (sc_t 3)))))
 (let (($x11624 (= (used_gas_t x_0 w_5 w_4 4) (+ 3 (used_gas_t x_0 w_5 w_4 3)))))
 (let ((?x6754 (sc_t 3)))
 (let ((?x7779 (bvadd (_ bv63 6) ?x6754)))
 (let ((?x9649 (stack_t x_0 w_5 w_4 3 ?x7779)))
 (let ((?x90 (bvadd (_ bv62 6) ?x6754)))
 (let ((?x3693 (stack_t x_0 w_5 w_4 3 ?x90)))
 (let ((?x5768 (bvadd (_ bv61 6) ?x6754)))
 (let ((?x2681 (stack_t x_0 w_5 w_4 3 ?x5768)))
 (let (($x1822 (= $x9712 (or (exc_halt_t 2) (not (bvsle (_ bv0 6) (bvadd (_ bv61 6) (sc_t 2))))))))
 (let (($x5182 (forall ((w (_ BitVec 256)) )(let ((?x4654 (storage_t x_0 w_5 w_4 2 w)))
 (let ((?x1992 (storage_t x_0 w_5 w_4 3 w)))
 (= ?x1992 ?x4654))))
 ))
 (let (($x2425 (forall ((n (_ BitVec 6)) )(let ((?x9779 (stack_t x_0 w_5 w_4 2 n)))
 (let ((?x612 (stack_t x_0 w_5 w_4 3 n)))
 (or (bvsle (bvadd (_ bv61 6) (sc_t 2)) n) (= ?x612 ?x9779)))))
 ))
 (let ((?x11248 (sc_t 2)))
 (let (($x7578 (= ?x6754 ?x11248)))
 (let ((?x853 (used_gas_t x_0 w_5 w_4 3)))
 (let (($x2872 (not (= ((_ extract 6 6) (bvadd (_ bv1 7) (concat (_ bv0 1) (sc_t 1)))) (_ bv0 1)))))
 (let (($x4852 (exc_halt_t 1)))
 (let (($x5995 (exc_halt_t 2)))
 (let (($x6840 (= $x5995 (or $x4852 $x2872))))
 (let (($x7613 (forall ((w (_ BitVec 256)) )(let ((?x4785 (storage_t x_0 w_5 w_4 1 w)))
 (let ((?x4654 (storage_t x_0 w_5 w_4 2 w)))
 (= ?x4654 ?x4785))))
 ))
 (let (($x7491 (forall ((n (_ BitVec 6)) )(let ((?x9666 (sc_t 1)))
 (let (($x655 (bvsle ?x9666 n)))
 (let ((?x3548 (stack_t x_0 w_5 w_4 1 n)))
 (let ((?x9779 (stack_t x_0 w_5 w_4 2 n)))
 (or (= ?x9779 ?x3548) $x655))))))
 ))
 (let (($x2990 (= ?x11248 (bvadd (_ bv1 6) (sc_t 1)))))
 (let ((?x8214 (used_gas_t x_0 w_5 w_4 2)))
 (let (($x11249 (= $x4852 (or $x56 (not (= ((_ extract 6 6) (bvadd (_ bv1 7) (concat (_ bv0 1) ?x63))) (_ bv0 1)))))))
 (let (($x5169 (forall ((w (_ BitVec 256)) )(let ((?x5357 (storage_t x_0 w_5 w_4 0 w)))
 (let ((?x4785 (storage_t x_0 w_5 w_4 1 w)))
 (= ?x4785 ?x5357))))
 ))
 (let (($x8220 (forall ((n (_ BitVec 6)) )(let ((?x63 (sc_t 0)))
 (let (($x11416 (bvsle ?x63 n)))
 (let ((?x4700 (stack_t x_0 w_5 w_4 0 n)))
 (let ((?x3548 (stack_t x_0 w_5 w_4 1 n)))
 (or (= ?x3548 ?x4700) $x11416))))))
 ))
 (let ((?x9666 (sc_t 1)))
 (let (($x6587 (= ?x9666 (bvadd (_ bv1 6) ?x63))))
 (let (($x4865 (not (= ((_ extract 6 6) (bvadd (_ bv1 7) (concat (_ bv0 1) (sc_s 4)))) (_ bv0 1)))))
 (let (($x9175 (exc_halt_s 4)))
 (let (($x3360 (forall ((w (_ BitVec 256)) )(let ((?x9701 (storage_s x_0 w_5 w_4 4 w)))
 (let ((?x427 (storage_s x_0 w_5 w_4 5 w)))
 (= ?x427 ?x9701))))
 ))
 (let (($x2157 (forall ((n (_ BitVec 6)) )(let ((?x4581 (stack_s x_0 w_5 w_4 4 n)))
 (let ((?x5192 (stack_s x_0 w_5 w_4 5 n)))
 (or (= ?x5192 ?x4581) (bvsle (sc_s 4) n)))))
 ))
 (let (($x3192 (= ?x4319 (bvadd (_ bv1 6) (sc_s 4)))))
 (let (($x11397 (= (used_gas_s x_0 w_5 w_4 5) (+ 3 (used_gas_s x_0 w_5 w_4 4)))))
 (let (($x5977 (= $x9175 (or (exc_halt_s 3) (not (bvsle (_ bv0 6) (bvadd (_ bv62 6) (sc_s 3))))))))
 (let (($x2453 (forall ((w (_ BitVec 256)) )(let ((?x5947 (storage_s x_0 w_5 w_4 3 w)))
 (let ((?x9701 (storage_s x_0 w_5 w_4 4 w)))
 (= ?x9701 ?x5947))))
 ))
 (let (($x201 (forall ((n (_ BitVec 6)) )(let ((?x3851 (sc_s 3)))
 (let ((?x4699 (bvadd (_ bv62 6) ?x3851)))
 (let (($x8206 (bvsle ?x4699 n)))
 (let ((?x4314 (stack_s x_0 w_5 w_4 3 n)))
 (let ((?x4581 (stack_s x_0 w_5 w_4 4 n)))
 (or (= ?x4581 ?x4314) $x8206)))))))
 ))
 (let ((?x3851 (sc_s 3)))
 (let ((?x9433 (sc_s 4)))
 (let (($x3035 (= ?x9433 ?x3851)))
 (let ((?x6977 (used_gas_s x_0 w_5 w_4 4)))
 (let (($x6357 (= (stack_s x_0 w_5 w_4 4 (bvadd (_ bv62 6) ?x9433)) (stack_s x_0 w_5 w_4 3 (bvadd (_ bv63 6) ?x3851)))))
 (let (($x1158 (= (stack_s x_0 w_5 w_4 4 (bvadd (_ bv63 6) ?x9433)) (stack_s x_0 w_5 w_4 3 (bvadd (_ bv62 6) ?x3851)))))
 (let (($x10299 (not (= ((_ extract 6 6) (bvadd (_ bv1 7) (concat (_ bv0 1) (sc_s 2)))) (_ bv0 1)))))
 (let (($x10052 (exc_halt_s 2)))
 (let (($x8103 (exc_halt_s 3)))
 (let (($x11481 (= $x8103 (or $x10052 $x10299))))
 (let (($x3521 (forall ((w (_ BitVec 256)) )(let ((?x1371 (storage_s x_0 w_5 w_4 2 w)))
 (let ((?x5947 (storage_s x_0 w_5 w_4 3 w)))
 (= ?x5947 ?x1371))))
 ))
 (let (($x6778 (forall ((n (_ BitVec 6)) )(let ((?x3363 (stack_s x_0 w_5 w_4 2 n)))
 (let ((?x4314 (stack_s x_0 w_5 w_4 3 n)))
 (let ((?x2272 (sc_s 2)))
 (let (($x1244 (bvsle ?x2272 n)))
 (or $x1244 (= ?x4314 ?x3363)))))))
 ))
 (let (($x9622 (= ?x3851 (bvadd (_ bv1 6) (sc_s 2)))))
 (let ((?x11170 (used_gas_s x_0 w_5 w_4 3)))
 (let (($x9019 (= $x10052 (or (exc_halt_s 1) (not (bvsle (_ bv0 6) (bvadd (_ bv62 6) (sc_s 1))))))))
 (let (($x3411 (forall ((w (_ BitVec 256)) )(let ((?x517 (storage_s x_0 w_5 w_4 1 w)))
 (let ((?x1371 (storage_s x_0 w_5 w_4 2 w)))
 (= ?x1371 ?x517))))
 ))
 (let (($x7069 (forall ((n (_ BitVec 6)) )(let ((?x154 (sc_s 1)))
 (let ((?x5843 (bvadd (_ bv62 6) ?x154)))
 (let (($x8774 (bvsle ?x5843 n)))
 (let ((?x6814 (stack_s x_0 w_5 w_4 1 n)))
 (let ((?x3363 (stack_s x_0 w_5 w_4 2 n)))
 (or (= ?x3363 ?x6814) $x8774)))))))
 ))
 (let ((?x154 (sc_s 1)))
 (let ((?x2272 (sc_s 2)))
 (let (($x11645 (= ?x2272 ?x154)))
 (let ((?x11889 (used_gas_s x_0 w_5 w_4 2)))
 (let (($x8072 (= (stack_s x_0 w_5 w_4 2 (bvadd (_ bv62 6) ?x2272)) (stack_s x_0 w_5 w_4 1 (bvadd (_ bv63 6) ?x154)))))
 (let (($x6232 (= (stack_s x_0 w_5 w_4 2 (bvadd (_ bv63 6) ?x2272)) (stack_s x_0 w_5 w_4 1 (bvadd (_ bv62 6) ?x154)))))
 (let (($x8780 (exc_halt_s 1)))
 (let (($x1756 (= $x8780 (or $x57 (not (= ((_ extract 6 6) (bvadd (_ bv1 7) (concat (_ bv0 1) ?x72))) (_ bv0 1)))))))
 (let (($x1611 (forall ((w (_ BitVec 256)) )(let ((?x9831 (storage_s x_0 w_5 w_4 0 w)))
 (let ((?x517 (storage_s x_0 w_5 w_4 1 w)))
 (= ?x517 ?x9831))))
 ))
 (let (($x2463 (forall ((n (_ BitVec 6)) )(let ((?x6271 (stack_s x_0 w_5 w_4 0 n)))
 (let ((?x6814 (stack_s x_0 w_5 w_4 1 n)))
 (let ((?x72 (sc_s 0)))
 (let (($x2856 (bvsle ?x72 n)))
 (or $x2856 (= ?x6814 ?x6271)))))))
 ))
 (let (($x9590 (= ?x154 (bvadd (_ bv1 6) ?x72))))
 (let (($x2875 (forall ((w (_ BitVec 256)) )(let ((?x9831 (storage_s x_0 w_5 w_4 0 w)))
 (= ?x9831 (_ bv0 256))))
 ))
 (let (($x11239 (= ?x5086 0)))
 (let (($x5393 (not $x57)))
 (let (($x9794 (= (stack_s x_0 w_5 w_4 0 (_ bv0 6)) x_0)))
 (let (($x7461 (= ?x72 (_ bv1 6))))
 (and $x7461 $x9794 $x5393 $x11239 $x2875 (= (stack_s x_0 w_5 w_4 1 ?x72) w_5) (= (used_gas_s x_0 w_5 w_4 1) (+ 3 ?x5086)) $x9590 $x2463 $x1611 $x1756 $x6232 $x8072 (= ?x11889 (+ 3 (used_gas_s x_0 w_5 w_4 1))) $x11645 $x7069 $x3411 $x9019 (= (stack_s x_0 w_5 w_4 3 ?x2272) w_4) (= ?x11170 (+ 3 ?x11889)) $x9622 $x6778 $x3521 $x11481 $x1158 $x6357 (= ?x6977 (+ 3 ?x11170)) $x3035 $x201 $x2453 $x5977 (= (stack_s x_0 w_5 w_4 5 ?x9433) w_5) $x11397 $x3192 $x2157 $x3360 (= $x1862 (or $x9175 $x4865)) (= (stack_t x_0 w_5 w_4 1 ?x63) w_4) (= (used_gas_t x_0 w_5 w_4 1) (+ 3 ?x3771)) $x6587 $x8220 $x5169 $x11249 (= (stack_t x_0 w_5 w_4 2 ?x9666) w_5) (= ?x8214 (+ 3 (used_gas_t x_0 w_5 w_4 1))) $x2990 $x7491 $x7613 $x6840 (= ?x9649 (stack_t x_0 w_5 w_4 2 (bvadd (_ bv61 6) ?x11248))) (= ?x2681 (stack_t x_0 w_5 w_4 2 (bvadd (_ bv63 6) ?x11248))) (= ?x3693 (stack_t x_0 w_5 w_4 2 (bvadd (_ bv62 6) ?x11248))) (= ?x853 (+ 3 ?x8214)) $x7578 $x2425 $x5182 $x1822 (= (stack_t x_0 w_5 w_4 4 (bvadd (_ bv63 6) ?x7495)) ?x2681) (= (stack_t x_0 w_5 w_4 4 ?x5768) ?x2681) (= (stack_t x_0 w_5 w_4 4 ?x90) ?x3693) (= (stack_t x_0 w_5 w_4 4 ?x7779) ?x9649) $x11624 $x4149 $x2501 $x114 (= $x7854 (or $x1388 $x4543 $x9712)) $x73 $x4167 $x58 $x8575 $x4565 (not (and $x3074 $x890 $x1994 $x781))))))))))))))))))))))))))))))))))))))))))))))))))))))))))))))))))))))))))))))))))))))))))))))))))
 )
(check-sat)
(get-proof)
